c Random generated cnf formula, satisfiable: true
p cnf 10 50
4 -10 7 0
-6 -2 5 0
-5 1 -6 0
-5 -7 4 0
-6 2 -1 0
8 3 10 0
-10 -9 -4 0
2 -9 -7 0
-4 -3 -7 0
-7 -9 -5 0
-10 6 -2 0
-10 -7 -8 0
-5 8 4 0
1 -9 2 0
9 -7 10 0
-8 -10 7 0
-5 1 -4 0
-8 6 -5 0
8 -1 2 0
-1 3 -6 0
-3 -7 10 0
-5 9 6 0
10 6 -8 0
-3 -2 6 0
7 -6 -10 0
-10 -9 -7 0
6 -8 9 0
8 -10 7 0
7 -1 2 0
5 -10 -3 0
4 -2 -10 0
3 -5 9 0
-9 -1 -8 0
3 -10 6 0
7 -8 -5 0
2 -3 9 0
9 2 5 0
-7 2 -3 0
-1 3 -8 0
8 4 -3 0
-3 9 10 0
-9 8 3 0
6 10 4 0
-5 9 1 0
-9 3 8 0
4 10 -6 0
-4 7 1 0
-3 5 -8 0
3 -4 7 0
-8 -9 -5 0
